Week_3/Office_assignment/office_assignment.sol
# Solution for model basic_model
# Objective value = 38
Staff_1_Room_1 0
Staff_1_Room_2 0
Staff_1_Room_3 0
Staff_1_Room_4 1
Staff_1_Room_5 0
Staff_2_Room_1 0
Staff_2_Room_2 0
Staff_2_Room_3 1
Staff_2_Room_4 0
Staff_2_Room_5 0
Staff_3_Room_1 1
Staff_3_Room_2 0
Staff_3_Room_3 0
Staff_3_Room_4 0
Staff_3_Room_5 0
Staff_4_Room_1 0
Staff_4_Room_2 0
Staff_4_Room_3 0
Staff_4_Room_4 0
Staff_4_Room_5 1
Staff_5_Room_1 0
Staff_5_Room_2 1
Staff_5_Room_3 0
Staff_5_Room_4 0
Staff_5_Room_5 0
Staff_6_Room_1 0
Staff_6_Room_2 0
Staff_6_Room_3 1
Staff_6_Room_4 0
Staff_6_Room_5 0
Staff_7_Room_1 0
Staff_7_Room_2 1
Staff_7_Room_3 0
Staff_7_Room_4 0
Staff_7_Room_5 0
Staff_8_Room_1 1
Staff_8_Room_2 0
Staff_8_Room_3 0
Staff_8_Room_4 0
Staff_8_Room_5 0
